DATASET = "thpack7";
INSTANCE = "051";

WIDTH = 233;
HEIGHT = 220;
LENGTH = 587;

NO_OF_SHAPES = 20;
size = [|
  66,64,36 |
  97,73,49 |
  69,60,43 |
  52,37,20 |
  109,63,37 |
  79,57,24 |
  95,72,22 |
  65,50,39 |
  98,42,30 |
  53,40,36 |
  82,54,51 |
  77,33,31 |
  66,56,49 |
  101,68,62 |
  82,64,46 |
  88,83,58 |
  108,51,29 |
  91,76,62 |
  61,32,25 |
  70,47,30 |
|];

verticality = [|
  1,1,1 |
  1,1,1 |
  1,1,1 |
  0,1,1 |
  0,1,1 |
  0,0,1 |
  0,0,1 |
  1,1,1 |
  0,1,1 |
  1,1,1 |
  1,1,1 |
  0,1,1 |
  1,1,1 |
  1,1,1 |
  1,1,1 |
  1,1,1 |
  0,1,1 |
  1,1,1 |
  0,1,1 |
  0,1,1 |
|];

box_count = [
  6,
  4,
  8,
  10,
  11,
  11,
  6,
  10,
  14,
  9,
  10,
  7,
  8,
  6,
  8,
  5,
  10,
  9,
  7,
  7,
];
